50
20351

243 689
902 481
119 833
447 936
152 482
825 230
929 883
284 588
254 683
273 873
433 243
271 177
33 864
521 405
61 990
828 27
544 318
396 783
947 970
384 24
271 802
441 231
113 472
341 101
958 597
33 978
493 611
916 613
916 686
830 988
636 33
848 744
629 739
595 256
212 498
433 790
818 333
456 632
996 818
451 393
975 609
46 465
245 685
800 961
269 758
162 133
975 69
223 153
179 636
768 464
